(set-logic ALL)
(declare-const a_random97_0 String)
(declare-fun seed0_sigmaStar_0 () String)
(declare-fun seed0_sigmaStar_1 () String)
(declare-fun seed0_sigmaStar_2 () String)
(declare-fun seed0_sigmaStar_3 () String)
(declare-fun seed0_sigmaStar_4 () String)
(declare-fun seed0_literal_16 () String)
(declare-fun seed0_x_15 () String)
(declare-fun seed0_literal_13 () String)
(declare-fun seed0_literal_14 () String)
(declare-fun seed0_x_18 () String)
(declare-fun seed0_literal_20 () String)
(declare-fun seed0_x_22 () String)
(declare-fun seed0_x_23 () String)
(declare-fun seed0_literal_24 () String)
(declare-fun seed0_x_25 () String)
(assert (and (and (= seed0_literal_16 "\u{2f}") (=> (str.contains (str.++ seed0_x_23 seed0_literal_14) (str.++ seed0_x_22 seed0_literal_16)) (str.<= (str.++ seed0_sigmaStar_3 seed0_sigmaStar_2) (str.++ seed0_sigmaStar_4 seed0_x_15)))) (and (= seed0_literal_13 "\u{77}\u{64}\u{69}\u{72}") (or (str.contains (str.++ seed0_literal_24 seed0_literal_20) (str.++ seed0_literal_13 seed0_x_18)) (str.contains (str.++ seed0_literal_20 seed0_literal_16) (str.++ seed0_x_15 seed0_sigmaStar_2)))) (and (= seed0_literal_14 "\u{2f}") (=> (str.contains (str.++ seed0_sigmaStar_3 seed0_literal_20) (str.++ seed0_sigmaStar_1 seed0_sigmaStar_0)) (str.suffixof (str.++ seed0_x_18 seed0_literal_20) (str.++ seed0_literal_20 seed0_sigmaStar_1)))) (and (or (= seed0_x_15 seed0_literal_13) (= seed0_x_15 seed0_literal_14)) (not (str.<= (str.++ seed0_literal_24 seed0_literal_24) (str.++ seed0_literal_14 seed0_sigmaStar_1)))) (and (and (str.suffixof seed0_x_18 a_random97_0) (str.prefixof seed0_x_18 a_random97_0) (str.suffixof (str.++ seed0_literal_16 seed0_x_15) a_random97_0) (str.prefixof (str.++ seed0_literal_16 seed0_x_15) a_random97_0)) (not (str.prefixof (str.++ seed0_literal_24 seed0_literal_24) (str.++ seed0_literal_24 seed0_x_25)))) (and (= seed0_literal_20 "\u{3c}\u{70}\u{3e}\u{75}\u{70}\u{6c}\u{6f}\u{61}\u{64}\u{61}\u{66}\u{69}\u{6c}\u{65}\u{20}\u{28}\u{6d}\u{61}\u{78}\u{73}\u{69}\u{7a}\u{65}\u{29}\u{20}\u{2d}\u{2d}\u{3e}\u{20}\u{3c}\u{62}\u{3e}") (=> (str.contains (str.++ seed0_x_18 seed0_literal_24) (str.++ seed0_sigmaStar_2 seed0_literal_13)) (str.< (str.++ seed0_literal_13 seed0_x_25) (str.++ seed0_sigmaStar_4 seed0_sigmaStar_1)))) (and (or (= seed0_x_22 seed0_x_18) (= seed0_x_22 seed0_literal_13) (= seed0_x_22 seed0_literal_14)) (str.< (str.++ seed0_x_18 seed0_literal_24) (str.++ seed0_sigmaStar_3 seed0_literal_14))) (and (= seed0_x_23 (str.++ seed0_literal_20 seed0_x_22)) (=> (str.contains (str.++ seed0_literal_20 seed0_sigmaStar_0) (str.++ seed0_literal_13 seed0_x_23)) (str.prefixof (str.++ seed0_x_18 seed0_literal_16) (str.++ seed0_sigmaStar_2 seed0_x_22)))) (and (= seed0_literal_24 "\u{3c}\u{2f}\u{62}\u{3e}\u{3c}\u{2f}\u{70}\u{3e}") (not (str.contains (str.++ seed0_x_15 seed0_literal_20) (str.++ seed0_literal_13 seed0_x_22)))) (and (= seed0_x_25 (str.++ seed0_x_23 seed0_literal_24)) (not (str.contains (str.++ seed0_x_18 seed0_x_22) (str.++ seed0_literal_14 seed0_literal_13)))) (and (str.in_re seed0_x_25 (re.++ (re.* re.allchar ) (re.++ (str.to_re "\u{5c}\u{3c}\u{53}\u{43}\u{52}\u{49}\u{50}\u{54}") (re.* re.allchar )))) (and (str.suffixof (str.++ seed0_x_22 seed0_literal_14) (str.++ seed0_x_18 seed0_literal_16)) (str.contains (str.++ seed0_sigmaStar_4 seed0_literal_24) (str.++ seed0_sigmaStar_3 seed0_literal_20))))))
(check-sat)
(exit)